\ENCODING=ISO-8859-1
\Problem name: 

Minimize
 obj: 0.026 i_0_0_0 + 0.0248 i_1_0_0 + 0.0048 i_2_0_0 + 0.002 i_3_0_0
      + 0.0036 i_4_0_0 + 0.026 i_5_0_0 + 0.0508 i_6_0_0 + 0.0248 i_7_0_0
      + 0.0234 i_0_1_0 + 0.02232 i_1_1_0 + 0.00432 i_2_1_0 + 0.0018 i_3_1_0
      + 0.00324 i_4_1_0 + 0.0234 i_5_1_0 + 0.04572 i_6_1_0 + 0.02232 i_7_1_0
      + 0.02106 i_0_2_0 + 0.020088 i_1_2_0 + 0.003888 i_2_2_0 + 0.00162 i_3_2_0
      + 0.002916 i_4_2_0 + 0.02106 i_5_2_0 + 0.041148 i_6_2_0
      + 0.020088 i_7_2_0 + 0.018954 i_0_3_0 + 0.0180792 i_1_3_0
      + 0.0034992 i_2_3_0 + 0.001458 i_3_3_0 + 0.0026244 i_4_3_0
      + 0.018954 i_5_3_0 + 0.0370332 i_6_3_0 + 0.0180792 i_7_3_0
      + 0.0170586 i_0_4_0 + 0.01627128 i_1_4_0 + 0.00314928 i_2_4_0
      + 0.0013122 i_3_4_0 + 0.00236196 i_4_4_0 + 0.0170586 i_5_4_0
      + 0.03332988 i_6_4_0 + 0.01627128 i_7_4_0 + 0.01535274 i_0_5_0
      + 0.014644152 i_1_5_0 + 0.002834352 i_2_5_0 + 0.00118098 i_3_5_0
      + 0.002125764 i_4_5_0 + 0.01535274 i_5_5_0 + 0.029996892 i_6_5_0
      + 0.014644152 i_7_5_0 + 0.013817466 i_0_6_0 + 0.0131797368 i_1_6_0
      + 0.0025509168 i_2_6_0 + 0.001062882 i_3_6_0 + 0.0019131876 i_4_6_0
      + 0.013817466 i_5_6_0 + 0.0269972028 i_6_6_0 + 0.0131797368 i_7_6_0
      + 0.0124357194 i_0_7_0 + 0.01186176312 i_1_7_0 + 0.00229582512 i_2_7_0
      + 0.0009565938 i_3_7_0 + 0.00172186884 i_4_7_0 + 0.0124357194 i_5_7_0
      + 0.02429748252 i_6_7_0 + 0.01186176312 i_7_7_0 + 0.01119214746 i_0_8_0
      + 0.010675586808 i_1_8_0 + 0.002066242608 i_2_8_0 + 0.00086093442 i_3_8_0
      + 0.001549681956 i_4_8_0 + 0.01119214746 i_5_8_0 + 0.021867734268 i_6_8_0
      + 0.010675586808 i_7_8_0 + 66.72 p_0_0_0 + 22.57 p_1_0_0 + 69.29 p_2_0_0
      + 91.18 p_3_0_0 + 99.78 p_4_0_0 + 40.65 p_5_0_0 + 8.61 p_6_0_0
      + 14.05 p_7_0_0 + 60.048 p_0_1_0 + 20.313 p_1_1_0 + 62.361 p_2_1_0
      + 82.062 p_3_1_0 + 89.802 p_4_1_0 + 36.585 p_5_1_0 + 7.749 p_6_1_0
      + 12.645 p_7_1_0 + 54.0432 p_0_2_0 + 18.2817 p_1_2_0 + 56.1249 p_2_2_0
      + 73.8558 p_3_2_0 + 80.8218 p_4_2_0 + 32.9265 p_5_2_0 + 6.9741 p_6_2_0
      + 11.3805 p_7_2_0 + 48.63888 p_0_3_0 + 16.45353 p_1_3_0
      + 50.51241 p_2_3_0 + 66.47022 p_3_3_0 + 72.73962 p_4_3_0
      + 29.63385 p_5_3_0 + 6.27669 p_6_3_0 + 10.24245 p_7_3_0
      + 43.774992 p_0_4_0 + 14.808177 p_1_4_0 + 45.461169 p_2_4_0
      + 59.823198 p_3_4_0 + 65.465658 p_4_4_0 + 26.670465 p_5_4_0
      + 5.649021 p_6_4_0 + 9.218205 p_7_4_0 + 39.3974928 p_0_5_0
      + 13.3273593 p_1_5_0 + 40.9150521 p_2_5_0 + 53.8408782 p_3_5_0
      + 58.9190922 p_4_5_0 + 24.0034185 p_5_5_0 + 5.0841189 p_6_5_0
      + 8.2963845 p_7_5_0 + 35.45774352 p_0_6_0 + 11.99462337 p_1_6_0
      + 36.82354689 p_2_6_0 + 48.45679038 p_3_6_0 + 53.02718298 p_4_6_0
      + 21.60307665 p_5_6_0 + 4.57570701 p_6_6_0 + 7.46674605 p_7_6_0
      + 31.911969168 p_0_7_0 + 10.795161033 p_1_7_0 + 33.141192201 p_2_7_0
      + 43.611111342 p_3_7_0 + 47.724464682 p_4_7_0 + 19.442768985 p_5_7_0
      + 4.118136309 p_6_7_0 + 6.720071445 p_7_7_0 + 28.7207722512 p_0_8_0
      + 9.7156449297 p_1_8_0 + 29.8270729809 p_2_8_0 + 39.2500002078 p_3_8_0
      + 42.9520182138 p_4_8_0 + 17.4984920865 p_5_8_0 + 3.7063226781 p_6_8_0
      + 6.0480643005 p_7_8_0 + 0.26 b_5_0_0 + 0.508 b_6_0_0 + 0.248 b_7_0_0
      + 0.234 b_5_1_0 + 0.4572 b_6_1_0 + 0.2232 b_7_1_0 + 0.2106 b_5_2_0
      + 0.41148 b_6_2_0 + 0.20088 b_7_2_0 + 0.18954 b_5_3_0 + 0.370332 b_6_3_0
      + 0.180792 b_7_3_0 + 0.170586 b_5_4_0 + 0.3332988 b_6_4_0
      + 0.1627128 b_7_4_0 + 0.1535274 b_5_5_0 + 0.29996892 b_6_5_0
      + 0.14644152 b_7_5_0 + 0.13817466 b_5_6_0 + 0.269972028 b_6_6_0
      + 0.131797368 b_7_6_0 + 0.124357194 b_5_7_0 + 0.2429748252 b_6_7_0
      + 0.1186176312 b_7_7_0 + 1.119214746 b_5_8_0 + 2.1867734268 b_6_8_0
      + 1.0675586808 b_7_8_0
Subject To
 Flow000: - q_p_t_s_5_0_0 - q_p_t_s_6_0_0 - i_0_0_0  = -563
 Flow010: q_p_t_s_0_0_0 - q_p_t_s_5_0_0 - q_p_t_s_6_0_0 - q_p_t_s_5_1_0
          - q_p_t_s_6_1_0 - i_0_1_0  = -563
 Flow020: q_p_t_s_0_0_0 - q_p_t_s_5_0_0 - q_p_t_s_6_0_0 + q_p_t_s_0_1_0
          - q_p_t_s_5_1_0 - q_p_t_s_6_1_0 - q_p_t_s_5_2_0 - q_p_t_s_6_2_0
          - i_0_2_0  = -563
 Flow030: q_p_t_s_0_0_0 - q_p_t_s_5_0_0 - q_p_t_s_6_0_0 + q_p_t_s_0_1_0
          - q_p_t_s_5_1_0 - q_p_t_s_6_1_0 + q_p_t_s_0_2_0 - q_p_t_s_5_2_0
          - q_p_t_s_6_2_0 - q_p_t_s_5_3_0 - q_p_t_s_6_3_0 - i_0_3_0  = -563
 Flow040: q_p_t_s_0_0_0 - q_p_t_s_5_0_0 - q_p_t_s_6_0_0 + q_p_t_s_0_1_0
          - q_p_t_s_5_1_0 - q_p_t_s_6_1_0 + q_p_t_s_0_2_0 - q_p_t_s_5_2_0
          - q_p_t_s_6_2_0 + q_p_t_s_0_3_0 - q_p_t_s_5_3_0 - q_p_t_s_6_3_0
          - q_p_t_s_5_4_0 - q_p_t_s_6_4_0 - i_0_4_0  = -563
 Flow050: q_p_t_s_0_0_0 - q_p_t_s_5_0_0 - q_p_t_s_6_0_0 + q_p_t_s_0_1_0
          - q_p_t_s_5_1_0 - q_p_t_s_6_1_0 + q_p_t_s_0_2_0 - q_p_t_s_5_2_0
          - q_p_t_s_6_2_0 + q_p_t_s_0_3_0 - q_p_t_s_5_3_0 - q_p_t_s_6_3_0
          + q_p_t_s_0_4_0 - q_p_t_s_5_4_0 - q_p_t_s_6_4_0 - q_p_t_s_5_5_0
          - q_p_t_s_6_5_0 - i_0_5_0  = -563
 Flow060: q_p_t_s_0_0_0 - q_p_t_s_5_0_0 - q_p_t_s_6_0_0 + q_p_t_s_0_1_0
          - q_p_t_s_5_1_0 - q_p_t_s_6_1_0 + q_p_t_s_0_2_0 - q_p_t_s_5_2_0
          - q_p_t_s_6_2_0 + q_p_t_s_0_3_0 - q_p_t_s_5_3_0 - q_p_t_s_6_3_0
          + q_p_t_s_0_4_0 - q_p_t_s_5_4_0 - q_p_t_s_6_4_0 + q_p_t_s_0_5_0
          - q_p_t_s_5_5_0 - q_p_t_s_6_5_0 - q_p_t_s_5_6_0 - q_p_t_s_6_6_0
          - i_0_6_0  = -563
 Flow070: q_p_t_s_0_0_0 - q_p_t_s_5_0_0 - q_p_t_s_6_0_0 + q_p_t_s_0_1_0
          - q_p_t_s_5_1_0 - q_p_t_s_6_1_0 + q_p_t_s_0_2_0 - q_p_t_s_5_2_0
          - q_p_t_s_6_2_0 + q_p_t_s_0_3_0 - q_p_t_s_5_3_0 - q_p_t_s_6_3_0
          + q_p_t_s_0_4_0 - q_p_t_s_5_4_0 - q_p_t_s_6_4_0 + q_p_t_s_0_5_0
          - q_p_t_s_5_5_0 - q_p_t_s_6_5_0 + q_p_t_s_0_6_0 - q_p_t_s_5_6_0
          - q_p_t_s_6_6_0 - q_p_t_s_5_7_0 - q_p_t_s_6_7_0 - i_0_7_0  = -563
 Flow080: q_p_t_s_0_0_0 - q_p_t_s_5_0_0 - q_p_t_s_6_0_0 + q_p_t_s_0_1_0
          - q_p_t_s_5_1_0 - q_p_t_s_6_1_0 + q_p_t_s_0_2_0 - q_p_t_s_5_2_0
          - q_p_t_s_6_2_0 + q_p_t_s_0_3_0 - q_p_t_s_5_3_0 - q_p_t_s_6_3_0
          + q_p_t_s_0_4_0 - q_p_t_s_5_4_0 - q_p_t_s_6_4_0 + q_p_t_s_0_5_0
          - q_p_t_s_5_5_0 - q_p_t_s_6_5_0 + q_p_t_s_0_6_0 - q_p_t_s_5_6_0
          - q_p_t_s_6_6_0 + q_p_t_s_0_7_0 - q_p_t_s_5_7_0 - q_p_t_s_6_7_0
          - q_p_t_s_5_8_0 - q_p_t_s_6_8_0 - i_0_8_0  = -563
 Flow100: - q_p_t_s_6_0_0 - q_p_t_s_7_0_0 - i_1_0_0  = -214
 Flow110: q_p_t_s_1_0_0 - q_p_t_s_6_0_0 - q_p_t_s_7_0_0 - q_p_t_s_6_1_0
          - q_p_t_s_7_1_0 - i_1_1_0  = -214
 Flow120: q_p_t_s_1_0_0 - q_p_t_s_6_0_0 - q_p_t_s_7_0_0 + q_p_t_s_1_1_0
          - q_p_t_s_6_1_0 - q_p_t_s_7_1_0 - q_p_t_s_6_2_0 - q_p_t_s_7_2_0
          - i_1_2_0  = -214
 Flow130: q_p_t_s_1_0_0 - q_p_t_s_6_0_0 - q_p_t_s_7_0_0 + q_p_t_s_1_1_0
          - q_p_t_s_6_1_0 - q_p_t_s_7_1_0 + q_p_t_s_1_2_0 - q_p_t_s_6_2_0
          - q_p_t_s_7_2_0 - q_p_t_s_6_3_0 - q_p_t_s_7_3_0 - i_1_3_0  = -214
 Flow140: q_p_t_s_1_0_0 - q_p_t_s_6_0_0 - q_p_t_s_7_0_0 + q_p_t_s_1_1_0
          - q_p_t_s_6_1_0 - q_p_t_s_7_1_0 + q_p_t_s_1_2_0 - q_p_t_s_6_2_0
          - q_p_t_s_7_2_0 + q_p_t_s_1_3_0 - q_p_t_s_6_3_0 - q_p_t_s_7_3_0
          - q_p_t_s_6_4_0 - q_p_t_s_7_4_0 - i_1_4_0  = -214
 Flow150: q_p_t_s_1_0_0 - q_p_t_s_6_0_0 - q_p_t_s_7_0_0 + q_p_t_s_1_1_0
          - q_p_t_s_6_1_0 - q_p_t_s_7_1_0 + q_p_t_s_1_2_0 - q_p_t_s_6_2_0
          - q_p_t_s_7_2_0 + q_p_t_s_1_3_0 - q_p_t_s_6_3_0 - q_p_t_s_7_3_0
          + q_p_t_s_1_4_0 - q_p_t_s_6_4_0 - q_p_t_s_7_4_0 - q_p_t_s_6_5_0
          - q_p_t_s_7_5_0 - i_1_5_0  = -214
 Flow160: q_p_t_s_1_0_0 - q_p_t_s_6_0_0 - q_p_t_s_7_0_0 + q_p_t_s_1_1_0
          - q_p_t_s_6_1_0 - q_p_t_s_7_1_0 + q_p_t_s_1_2_0 - q_p_t_s_6_2_0
          - q_p_t_s_7_2_0 + q_p_t_s_1_3_0 - q_p_t_s_6_3_0 - q_p_t_s_7_3_0
          + q_p_t_s_1_4_0 - q_p_t_s_6_4_0 - q_p_t_s_7_4_0 + q_p_t_s_1_5_0
          - q_p_t_s_6_5_0 - q_p_t_s_7_5_0 - q_p_t_s_6_6_0 - q_p_t_s_7_6_0
          - i_1_6_0  = -214
 Flow170: q_p_t_s_1_0_0 - q_p_t_s_6_0_0 - q_p_t_s_7_0_0 + q_p_t_s_1_1_0
          - q_p_t_s_6_1_0 - q_p_t_s_7_1_0 + q_p_t_s_1_2_0 - q_p_t_s_6_2_0
          - q_p_t_s_7_2_0 + q_p_t_s_1_3_0 - q_p_t_s_6_3_0 - q_p_t_s_7_3_0
          + q_p_t_s_1_4_0 - q_p_t_s_6_4_0 - q_p_t_s_7_4_0 + q_p_t_s_1_5_0
          - q_p_t_s_6_5_0 - q_p_t_s_7_5_0 + q_p_t_s_1_6_0 - q_p_t_s_6_6_0
          - q_p_t_s_7_6_0 - q_p_t_s_6_7_0 - q_p_t_s_7_7_0 - i_1_7_0  = -214
 Flow180: q_p_t_s_1_0_0 - q_p_t_s_6_0_0 - q_p_t_s_7_0_0 + q_p_t_s_1_1_0
          - q_p_t_s_6_1_0 - q_p_t_s_7_1_0 + q_p_t_s_1_2_0 - q_p_t_s_6_2_0
          - q_p_t_s_7_2_0 + q_p_t_s_1_3_0 - q_p_t_s_6_3_0 - q_p_t_s_7_3_0
          + q_p_t_s_1_4_0 - q_p_t_s_6_4_0 - q_p_t_s_7_4_0 + q_p_t_s_1_5_0
          - q_p_t_s_6_5_0 - q_p_t_s_7_5_0 + q_p_t_s_1_6_0 - q_p_t_s_6_6_0
          - q_p_t_s_7_6_0 + q_p_t_s_1_7_0 - q_p_t_s_6_7_0 - q_p_t_s_7_7_0
          - q_p_t_s_6_8_0 - q_p_t_s_7_8_0 - i_1_8_0  = -214
 Flow200: - q_p_t_s_0_0_0 - q_p_t_s_1_0_0 - i_2_0_0  = -673
 Flow210: - q_p_t_s_0_0_0 - q_p_t_s_1_0_0 + q_p_t_s_2_0_0 - q_p_t_s_0_1_0
          - q_p_t_s_1_1_0 - i_2_1_0  = -673
 Flow220: - q_p_t_s_0_0_0 - q_p_t_s_1_0_0 + q_p_t_s_2_0_0 - q_p_t_s_0_1_0
          - q_p_t_s_1_1_0 + q_p_t_s_2_1_0 - q_p_t_s_0_2_0 - q_p_t_s_1_2_0
          - i_2_2_0  = -673
 Flow230: - q_p_t_s_0_0_0 - q_p_t_s_1_0_0 + q_p_t_s_2_0_0 - q_p_t_s_0_1_0
          - q_p_t_s_1_1_0 + q_p_t_s_2_1_0 - q_p_t_s_0_2_0 - q_p_t_s_1_2_0
          + q_p_t_s_2_2_0 - q_p_t_s_0_3_0 - q_p_t_s_1_3_0 - i_2_3_0  = -673
 Flow240: - q_p_t_s_0_0_0 - q_p_t_s_1_0_0 + q_p_t_s_2_0_0 - q_p_t_s_0_1_0
          - q_p_t_s_1_1_0 + q_p_t_s_2_1_0 - q_p_t_s_0_2_0 - q_p_t_s_1_2_0
          + q_p_t_s_2_2_0 - q_p_t_s_0_3_0 - q_p_t_s_1_3_0 + q_p_t_s_2_3_0
          - q_p_t_s_0_4_0 - q_p_t_s_1_4_0 - i_2_4_0  = -673
 Flow250: - q_p_t_s_0_0_0 - q_p_t_s_1_0_0 + q_p_t_s_2_0_0 - q_p_t_s_0_1_0
          - q_p_t_s_1_1_0 + q_p_t_s_2_1_0 - q_p_t_s_0_2_0 - q_p_t_s_1_2_0
          + q_p_t_s_2_2_0 - q_p_t_s_0_3_0 - q_p_t_s_1_3_0 + q_p_t_s_2_3_0
          - q_p_t_s_0_4_0 - q_p_t_s_1_4_0 + q_p_t_s_2_4_0 - q_p_t_s_0_5_0
          - q_p_t_s_1_5_0 - i_2_5_0  = -673
 Flow260: - q_p_t_s_0_0_0 - q_p_t_s_1_0_0 + q_p_t_s_2_0_0 - q_p_t_s_0_1_0
          - q_p_t_s_1_1_0 + q_p_t_s_2_1_0 - q_p_t_s_0_2_0 - q_p_t_s_1_2_0
          + q_p_t_s_2_2_0 - q_p_t_s_0_3_0 - q_p_t_s_1_3_0 + q_p_t_s_2_3_0
          - q_p_t_s_0_4_0 - q_p_t_s_1_4_0 + q_p_t_s_2_4_0 - q_p_t_s_0_5_0
          - q_p_t_s_1_5_0 + q_p_t_s_2_5_0 - q_p_t_s_0_6_0 - q_p_t_s_1_6_0
          - i_2_6_0  = -673
 Flow270: - q_p_t_s_0_0_0 - q_p_t_s_1_0_0 + q_p_t_s_2_0_0 - q_p_t_s_0_1_0
          - q_p_t_s_1_1_0 + q_p_t_s_2_1_0 - q_p_t_s_0_2_0 - q_p_t_s_1_2_0
          + q_p_t_s_2_2_0 - q_p_t_s_0_3_0 - q_p_t_s_1_3_0 + q_p_t_s_2_3_0
          - q_p_t_s_0_4_0 - q_p_t_s_1_4_0 + q_p_t_s_2_4_0 - q_p_t_s_0_5_0
          - q_p_t_s_1_5_0 + q_p_t_s_2_5_0 - q_p_t_s_0_6_0 - q_p_t_s_1_6_0
          + q_p_t_s_2_6_0 - q_p_t_s_0_7_0 - q_p_t_s_1_7_0 - i_2_7_0  = -673
 Flow280: - q_p_t_s_0_0_0 - q_p_t_s_1_0_0 + q_p_t_s_2_0_0 - q_p_t_s_0_1_0
          - q_p_t_s_1_1_0 + q_p_t_s_2_1_0 - q_p_t_s_0_2_0 - q_p_t_s_1_2_0
          + q_p_t_s_2_2_0 - q_p_t_s_0_3_0 - q_p_t_s_1_3_0 + q_p_t_s_2_3_0
          - q_p_t_s_0_4_0 - q_p_t_s_1_4_0 + q_p_t_s_2_4_0 - q_p_t_s_0_5_0
          - q_p_t_s_1_5_0 + q_p_t_s_2_5_0 - q_p_t_s_0_6_0 - q_p_t_s_1_6_0
          + q_p_t_s_2_6_0 - q_p_t_s_0_7_0 - q_p_t_s_1_7_0 + q_p_t_s_2_7_0
          - q_p_t_s_0_8_0 - q_p_t_s_1_8_0 - i_2_8_0  = -673
 Flow300: - q_p_t_s_0_0_0 - q_p_t_s_1_0_0 - i_3_0_0  = -644
 Flow310: - q_p_t_s_0_0_0 - q_p_t_s_1_0_0 + q_p_t_s_3_0_0 - q_p_t_s_0_1_0
          - q_p_t_s_1_1_0 - i_3_1_0  = -644
 Flow320: - q_p_t_s_0_0_0 - q_p_t_s_1_0_0 + q_p_t_s_3_0_0 - q_p_t_s_0_1_0
          - q_p_t_s_1_1_0 + q_p_t_s_3_1_0 - q_p_t_s_0_2_0 - q_p_t_s_1_2_0
          - i_3_2_0  = -644
 Flow330: - q_p_t_s_0_0_0 - q_p_t_s_1_0_0 + q_p_t_s_3_0_0 - q_p_t_s_0_1_0
          - q_p_t_s_1_1_0 + q_p_t_s_3_1_0 - q_p_t_s_0_2_0 - q_p_t_s_1_2_0
          + q_p_t_s_3_2_0 - q_p_t_s_0_3_0 - q_p_t_s_1_3_0 - i_3_3_0  = -644
 Flow340: - q_p_t_s_0_0_0 - q_p_t_s_1_0_0 + q_p_t_s_3_0_0 - q_p_t_s_0_1_0
          - q_p_t_s_1_1_0 + q_p_t_s_3_1_0 - q_p_t_s_0_2_0 - q_p_t_s_1_2_0
          + q_p_t_s_3_2_0 - q_p_t_s_0_3_0 - q_p_t_s_1_3_0 + q_p_t_s_3_3_0
          - q_p_t_s_0_4_0 - q_p_t_s_1_4_0 - i_3_4_0  = -644
 Flow350: - q_p_t_s_0_0_0 - q_p_t_s_1_0_0 + q_p_t_s_3_0_0 - q_p_t_s_0_1_0
          - q_p_t_s_1_1_0 + q_p_t_s_3_1_0 - q_p_t_s_0_2_0 - q_p_t_s_1_2_0
          + q_p_t_s_3_2_0 - q_p_t_s_0_3_0 - q_p_t_s_1_3_0 + q_p_t_s_3_3_0
          - q_p_t_s_0_4_0 - q_p_t_s_1_4_0 + q_p_t_s_3_4_0 - q_p_t_s_0_5_0
          - q_p_t_s_1_5_0 - i_3_5_0  = -644
 Flow360: - q_p_t_s_0_0_0 - q_p_t_s_1_0_0 + q_p_t_s_3_0_0 - q_p_t_s_0_1_0
          - q_p_t_s_1_1_0 + q_p_t_s_3_1_0 - q_p_t_s_0_2_0 - q_p_t_s_1_2_0
          + q_p_t_s_3_2_0 - q_p_t_s_0_3_0 - q_p_t_s_1_3_0 + q_p_t_s_3_3_0
          - q_p_t_s_0_4_0 - q_p_t_s_1_4_0 + q_p_t_s_3_4_0 - q_p_t_s_0_5_0
          - q_p_t_s_1_5_0 + q_p_t_s_3_5_0 - q_p_t_s_0_6_0 - q_p_t_s_1_6_0
          - i_3_6_0  = -644
 Flow370: - q_p_t_s_0_0_0 - q_p_t_s_1_0_0 + q_p_t_s_3_0_0 - q_p_t_s_0_1_0
          - q_p_t_s_1_1_0 + q_p_t_s_3_1_0 - q_p_t_s_0_2_0 - q_p_t_s_1_2_0
          + q_p_t_s_3_2_0 - q_p_t_s_0_3_0 - q_p_t_s_1_3_0 + q_p_t_s_3_3_0
          - q_p_t_s_0_4_0 - q_p_t_s_1_4_0 + q_p_t_s_3_4_0 - q_p_t_s_0_5_0
          - q_p_t_s_1_5_0 + q_p_t_s_3_5_0 - q_p_t_s_0_6_0 - q_p_t_s_1_6_0
          + q_p_t_s_3_6_0 - q_p_t_s_0_7_0 - q_p_t_s_1_7_0 - i_3_7_0  = -644
 Flow380: - q_p_t_s_0_0_0 - q_p_t_s_1_0_0 + q_p_t_s_3_0_0 - q_p_t_s_0_1_0
          - q_p_t_s_1_1_0 + q_p_t_s_3_1_0 - q_p_t_s_0_2_0 - q_p_t_s_1_2_0
          + q_p_t_s_3_2_0 - q_p_t_s_0_3_0 - q_p_t_s_1_3_0 + q_p_t_s_3_3_0
          - q_p_t_s_0_4_0 - q_p_t_s_1_4_0 + q_p_t_s_3_4_0 - q_p_t_s_0_5_0
          - q_p_t_s_1_5_0 + q_p_t_s_3_5_0 - q_p_t_s_0_6_0 - q_p_t_s_1_6_0
          + q_p_t_s_3_6_0 - q_p_t_s_0_7_0 - q_p_t_s_1_7_0 + q_p_t_s_3_7_0
          - q_p_t_s_0_8_0 - q_p_t_s_1_8_0 - i_3_8_0  = -644
 Flow400: - q_p_t_s_0_0_0 - q_p_t_s_1_0_0 - i_4_0_0  = -822
 Flow410: - q_p_t_s_0_0_0 - q_p_t_s_1_0_0 + q_p_t_s_4_0_0 - q_p_t_s_0_1_0
          - q_p_t_s_1_1_0 - i_4_1_0  = -822
 Flow420: - q_p_t_s_0_0_0 - q_p_t_s_1_0_0 + q_p_t_s_4_0_0 - q_p_t_s_0_1_0
          - q_p_t_s_1_1_0 + q_p_t_s_4_1_0 - q_p_t_s_0_2_0 - q_p_t_s_1_2_0
          - i_4_2_0  = -822
 Flow430: - q_p_t_s_0_0_0 - q_p_t_s_1_0_0 + q_p_t_s_4_0_0 - q_p_t_s_0_1_0
          - q_p_t_s_1_1_0 + q_p_t_s_4_1_0 - q_p_t_s_0_2_0 - q_p_t_s_1_2_0
          + q_p_t_s_4_2_0 - q_p_t_s_0_3_0 - q_p_t_s_1_3_0 - i_4_3_0  = -822
 Flow440: - q_p_t_s_0_0_0 - q_p_t_s_1_0_0 + q_p_t_s_4_0_0 - q_p_t_s_0_1_0
          - q_p_t_s_1_1_0 + q_p_t_s_4_1_0 - q_p_t_s_0_2_0 - q_p_t_s_1_2_0
          + q_p_t_s_4_2_0 - q_p_t_s_0_3_0 - q_p_t_s_1_3_0 + q_p_t_s_4_3_0
          - q_p_t_s_0_4_0 - q_p_t_s_1_4_0 - i_4_4_0  = -822
 Flow450: - q_p_t_s_0_0_0 - q_p_t_s_1_0_0 + q_p_t_s_4_0_0 - q_p_t_s_0_1_0
          - q_p_t_s_1_1_0 + q_p_t_s_4_1_0 - q_p_t_s_0_2_0 - q_p_t_s_1_2_0
          + q_p_t_s_4_2_0 - q_p_t_s_0_3_0 - q_p_t_s_1_3_0 + q_p_t_s_4_3_0
          - q_p_t_s_0_4_0 - q_p_t_s_1_4_0 + q_p_t_s_4_4_0 - q_p_t_s_0_5_0
          - q_p_t_s_1_5_0 - i_4_5_0  = -822
 Flow460: - q_p_t_s_0_0_0 - q_p_t_s_1_0_0 + q_p_t_s_4_0_0 - q_p_t_s_0_1_0
          - q_p_t_s_1_1_0 + q_p_t_s_4_1_0 - q_p_t_s_0_2_0 - q_p_t_s_1_2_0
          + q_p_t_s_4_2_0 - q_p_t_s_0_3_0 - q_p_t_s_1_3_0 + q_p_t_s_4_3_0
          - q_p_t_s_0_4_0 - q_p_t_s_1_4_0 + q_p_t_s_4_4_0 - q_p_t_s_0_5_0
          - q_p_t_s_1_5_0 + q_p_t_s_4_5_0 - q_p_t_s_0_6_0 - q_p_t_s_1_6_0
          - i_4_6_0  = -822
 Flow470: - q_p_t_s_0_0_0 - q_p_t_s_1_0_0 + q_p_t_s_4_0_0 - q_p_t_s_0_1_0
          - q_p_t_s_1_1_0 + q_p_t_s_4_1_0 - q_p_t_s_0_2_0 - q_p_t_s_1_2_0
          + q_p_t_s_4_2_0 - q_p_t_s_0_3_0 - q_p_t_s_1_3_0 + q_p_t_s_4_3_0
          - q_p_t_s_0_4_0 - q_p_t_s_1_4_0 + q_p_t_s_4_4_0 - q_p_t_s_0_5_0
          - q_p_t_s_1_5_0 + q_p_t_s_4_5_0 - q_p_t_s_0_6_0 - q_p_t_s_1_6_0
          + q_p_t_s_4_6_0 - q_p_t_s_0_7_0 - q_p_t_s_1_7_0 - i_4_7_0  = -822
 Flow480: - q_p_t_s_0_0_0 - q_p_t_s_1_0_0 + q_p_t_s_4_0_0 - q_p_t_s_0_1_0
          - q_p_t_s_1_1_0 + q_p_t_s_4_1_0 - q_p_t_s_0_2_0 - q_p_t_s_1_2_0
          + q_p_t_s_4_2_0 - q_p_t_s_0_3_0 - q_p_t_s_1_3_0 + q_p_t_s_4_3_0
          - q_p_t_s_0_4_0 - q_p_t_s_1_4_0 + q_p_t_s_4_4_0 - q_p_t_s_0_5_0
          - q_p_t_s_1_5_0 + q_p_t_s_4_5_0 - q_p_t_s_0_6_0 - q_p_t_s_1_6_0
          + q_p_t_s_4_6_0 - q_p_t_s_0_7_0 - q_p_t_s_1_7_0 + q_p_t_s_4_7_0
          - q_p_t_s_0_8_0 - q_p_t_s_1_8_0 - i_4_8_0  = -822
 Flow500: - i_5_0_0 + b_5_0_0  = -95
 Flow510: q_p_t_s_5_0_0 - i_5_1_0 + b_5_1_0  = 161
 Flow520: q_p_t_s_5_0_0 + q_p_t_s_5_1_0 - i_5_2_0 + b_5_2_0  = 430
 Flow530: q_p_t_s_5_0_0 + q_p_t_s_5_1_0 + q_p_t_s_5_2_0 - i_5_3_0 + b_5_3_0
           = 618
 Flow540: q_p_t_s_5_0_0 + q_p_t_s_5_1_0 + q_p_t_s_5_2_0 + q_p_t_s_5_3_0
          - i_5_4_0 + b_5_4_0  = 840
 Flow550: q_p_t_s_5_0_0 + q_p_t_s_5_1_0 + q_p_t_s_5_2_0 + q_p_t_s_5_3_0
          + q_p_t_s_5_4_0 - i_5_5_0 + b_5_5_0  = 1049
 Flow560: q_p_t_s_5_0_0 + q_p_t_s_5_1_0 + q_p_t_s_5_2_0 + q_p_t_s_5_3_0
          + q_p_t_s_5_4_0 + q_p_t_s_5_5_0 - i_5_6_0 + b_5_6_0  = 1302
 Flow570: q_p_t_s_5_0_0 + q_p_t_s_5_1_0 + q_p_t_s_5_2_0 + q_p_t_s_5_3_0
          + q_p_t_s_5_4_0 + q_p_t_s_5_5_0 + q_p_t_s_5_6_0 - i_5_7_0 + b_5_7_0
           = 1555
 Flow580: q_p_t_s_5_0_0 + q_p_t_s_5_1_0 + q_p_t_s_5_2_0 + q_p_t_s_5_3_0
          + q_p_t_s_5_4_0 + q_p_t_s_5_5_0 + q_p_t_s_5_6_0 + q_p_t_s_5_7_0
          - i_5_8_0 + b_5_8_0  = 1808
 Flow600: - i_6_0_0 + b_6_0_0  = -6
 Flow610: q_p_t_s_6_0_0 - i_6_1_0 + b_6_1_0  = 39
 Flow620: q_p_t_s_6_0_0 + q_p_t_s_6_1_0 - i_6_2_0 + b_6_2_0  = 83
 Flow630: q_p_t_s_6_0_0 + q_p_t_s_6_1_0 + q_p_t_s_6_2_0 - i_6_3_0 + b_6_3_0
           = 128
 Flow640: q_p_t_s_6_0_0 + q_p_t_s_6_1_0 + q_p_t_s_6_2_0 + q_p_t_s_6_3_0
          - i_6_4_0 + b_6_4_0  = 172
 Flow650: q_p_t_s_6_0_0 + q_p_t_s_6_1_0 + q_p_t_s_6_2_0 + q_p_t_s_6_3_0
          + q_p_t_s_6_4_0 - i_6_5_0 + b_6_5_0  = 216
 Flow660: q_p_t_s_6_0_0 + q_p_t_s_6_1_0 + q_p_t_s_6_2_0 + q_p_t_s_6_3_0
          + q_p_t_s_6_4_0 + q_p_t_s_6_5_0 - i_6_6_0 + b_6_6_0  = 261
 Flow670: q_p_t_s_6_0_0 + q_p_t_s_6_1_0 + q_p_t_s_6_2_0 + q_p_t_s_6_3_0
          + q_p_t_s_6_4_0 + q_p_t_s_6_5_0 + q_p_t_s_6_6_0 - i_6_7_0 + b_6_7_0
           = 306
 Flow680: q_p_t_s_6_0_0 + q_p_t_s_6_1_0 + q_p_t_s_6_2_0 + q_p_t_s_6_3_0
          + q_p_t_s_6_4_0 + q_p_t_s_6_5_0 + q_p_t_s_6_6_0 + q_p_t_s_6_7_0
          - i_6_8_0 + b_6_8_0  = 351
 Flow700: - i_7_0_0 + b_7_0_0  = -61
 Flow710: q_p_t_s_7_0_0 - i_7_1_0 + b_7_1_0  = 15
 Flow720: q_p_t_s_7_0_0 + q_p_t_s_7_1_0 - i_7_2_0 + b_7_2_0  = 94
 Flow730: q_p_t_s_7_0_0 + q_p_t_s_7_1_0 + q_p_t_s_7_2_0 - i_7_3_0 + b_7_3_0
           = 167
 Flow740: q_p_t_s_7_0_0 + q_p_t_s_7_1_0 + q_p_t_s_7_2_0 + q_p_t_s_7_3_0
          - i_7_4_0 + b_7_4_0  = 241
 Flow750: q_p_t_s_7_0_0 + q_p_t_s_7_1_0 + q_p_t_s_7_2_0 + q_p_t_s_7_3_0
          + q_p_t_s_7_4_0 - i_7_5_0 + b_7_5_0  = 315
 Flow760: q_p_t_s_7_0_0 + q_p_t_s_7_1_0 + q_p_t_s_7_2_0 + q_p_t_s_7_3_0
          + q_p_t_s_7_4_0 + q_p_t_s_7_5_0 - i_7_6_0 + b_7_6_0  = 390
 Flow770: q_p_t_s_7_0_0 + q_p_t_s_7_1_0 + q_p_t_s_7_2_0 + q_p_t_s_7_3_0
          + q_p_t_s_7_4_0 + q_p_t_s_7_5_0 + q_p_t_s_7_6_0 - i_7_7_0 + b_7_7_0
           = 465
 Flow780: q_p_t_s_7_0_0 + q_p_t_s_7_1_0 + q_p_t_s_7_2_0 + q_p_t_s_7_3_0
          + q_p_t_s_7_4_0 + q_p_t_s_7_5_0 + q_p_t_s_7_6_0 + q_p_t_s_7_7_0
          - i_7_8_0 + b_7_8_0  = 540
 c73:     - q_p_t_s_0_0_0 + 536.4 p_0_0_0 >= 0
 c74:     - q_p_t_s_1_0_0 + 216 p_1_0_0 >= 0
 c75:     - q_p_t_s_2_0_0 + 752.4 p_2_0_0 >= 0
 c76:     - q_p_t_s_3_0_0 + 752.4 p_3_0_0 >= 0
 c77:     - q_p_t_s_4_0_0 + 752.4 p_4_0_0 >= 0
 c78:     - q_p_t_s_5_0_0 + 455.4 p_5_0_0 >= 0
 c79:     - q_p_t_s_6_0_0 + 81 p_6_0_0 >= 0
 c80:     - q_p_t_s_7_0_0 + 135 p_7_0_0 >= 0
 c81:     - q_p_t_s_0_1_0 + 536.4 p_0_1_0 >= 0
 c82:     - q_p_t_s_1_1_0 + 216 p_1_1_0 >= 0
 c83:     - q_p_t_s_2_1_0 + 752.4 p_2_1_0 >= 0
 c84:     - q_p_t_s_3_1_0 + 752.4 p_3_1_0 >= 0
 c85:     - q_p_t_s_4_1_0 + 752.4 p_4_1_0 >= 0
 c86:     - q_p_t_s_5_1_0 + 455.4 p_5_1_0 >= 0
 c87:     - q_p_t_s_6_1_0 + 81 p_6_1_0 >= 0
 c88:     - q_p_t_s_7_1_0 + 135 p_7_1_0 >= 0
 c89:     - q_p_t_s_0_2_0 + 536.4 p_0_2_0 >= 0
 c90:     - q_p_t_s_1_2_0 + 216 p_1_2_0 >= 0
 c91:     - q_p_t_s_2_2_0 + 752.4 p_2_2_0 >= 0
 c92:     - q_p_t_s_3_2_0 + 752.4 p_3_2_0 >= 0
 c93:     - q_p_t_s_4_2_0 + 752.4 p_4_2_0 >= 0
 c94:     - q_p_t_s_5_2_0 + 455.4 p_5_2_0 >= 0
 c95:     - q_p_t_s_6_2_0 + 81 p_6_2_0 >= 0
 c96:     - q_p_t_s_7_2_0 + 135 p_7_2_0 >= 0
 c97:     - q_p_t_s_0_3_0 + 536.4 p_0_3_0 >= 0
 c98:     - q_p_t_s_1_3_0 + 216 p_1_3_0 >= 0
 c99:     - q_p_t_s_2_3_0 + 752.4 p_2_3_0 >= 0
 c100:    - q_p_t_s_3_3_0 + 752.4 p_3_3_0 >= 0
 c101:    - q_p_t_s_4_3_0 + 752.4 p_4_3_0 >= 0
 c102:    - q_p_t_s_5_3_0 + 455.4 p_5_3_0 >= 0
 c103:    - q_p_t_s_6_3_0 + 81 p_6_3_0 >= 0
 c104:    - q_p_t_s_7_3_0 + 135 p_7_3_0 >= 0
 c105:    - q_p_t_s_0_4_0 + 536.4 p_0_4_0 >= 0
 c106:    - q_p_t_s_1_4_0 + 216 p_1_4_0 >= 0
 c107:    - q_p_t_s_2_4_0 + 752.4 p_2_4_0 >= 0
 c108:    - q_p_t_s_3_4_0 + 752.4 p_3_4_0 >= 0
 c109:    - q_p_t_s_4_4_0 + 752.4 p_4_4_0 >= 0
 c110:    - q_p_t_s_5_4_0 + 455.4 p_5_4_0 >= 0
 c111:    - q_p_t_s_6_4_0 + 81 p_6_4_0 >= 0
 c112:    - q_p_t_s_7_4_0 + 135 p_7_4_0 >= 0
 c113:    - q_p_t_s_0_5_0 + 536.4 p_0_5_0 >= 0
 c114:    - q_p_t_s_1_5_0 + 216 p_1_5_0 >= 0
 c115:    - q_p_t_s_2_5_0 + 752.4 p_2_5_0 >= 0
 c116:    - q_p_t_s_3_5_0 + 752.4 p_3_5_0 >= 0
 c117:    - q_p_t_s_4_5_0 + 752.4 p_4_5_0 >= 0
 c118:    - q_p_t_s_5_5_0 + 455.4 p_5_5_0 >= 0
 c119:    - q_p_t_s_6_5_0 + 81 p_6_5_0 >= 0
 c120:    - q_p_t_s_7_5_0 + 135 p_7_5_0 >= 0
 c121:    - q_p_t_s_0_6_0 + 536.4 p_0_6_0 >= 0
 c122:    - q_p_t_s_1_6_0 + 216 p_1_6_0 >= 0
 c123:    - q_p_t_s_2_6_0 + 752.4 p_2_6_0 >= 0
 c124:    - q_p_t_s_3_6_0 + 752.4 p_3_6_0 >= 0
 c125:    - q_p_t_s_4_6_0 + 752.4 p_4_6_0 >= 0
 c126:    - q_p_t_s_5_6_0 + 455.4 p_5_6_0 >= 0
 c127:    - q_p_t_s_6_6_0 + 81 p_6_6_0 >= 0
 c128:    - q_p_t_s_7_6_0 + 135 p_7_6_0 >= 0
 c129:    - q_p_t_s_0_7_0 + 536.4 p_0_7_0 >= 0
 c130:    - q_p_t_s_1_7_0 + 216 p_1_7_0 >= 0
 c131:    - q_p_t_s_2_7_0 + 752.4 p_2_7_0 >= 0
 c132:    - q_p_t_s_3_7_0 + 752.4 p_3_7_0 >= 0
 c133:    - q_p_t_s_4_7_0 + 752.4 p_4_7_0 >= 0
 c134:    - q_p_t_s_5_7_0 + 455.4 p_5_7_0 >= 0
 c135:    - q_p_t_s_6_7_0 + 81 p_6_7_0 >= 0
 c136:    - q_p_t_s_7_7_0 + 135 p_7_7_0 >= 0
 c137:    - q_p_t_s_0_8_0 + 536.4 p_0_8_0 >= 0
 c138:    - q_p_t_s_1_8_0 + 216 p_1_8_0 >= 0
 c139:    - q_p_t_s_2_8_0 + 752.4 p_2_8_0 >= 0
 c140:    - q_p_t_s_3_8_0 + 752.4 p_3_8_0 >= 0
 c141:    - q_p_t_s_4_8_0 + 752.4 p_4_8_0 >= 0
 c142:    - q_p_t_s_5_8_0 + 455.4 p_5_8_0 >= 0
 c143:    - q_p_t_s_6_8_0 + 81 p_6_8_0 >= 0
 c144:    - q_p_t_s_7_8_0 + 135 p_7_8_0 >= 0
 c145:    2 q_p_t_s_0_0_0 <= 1072.8
 c146:    2 q_p_t_s_0_1_0 <= 1072.8
 c147:    2 q_p_t_s_0_2_0 <= 1072.8
 c148:    2 q_p_t_s_0_3_0 <= 1072.8
 c149:    2 q_p_t_s_0_4_0 <= 1072.8
 c150:    2 q_p_t_s_0_5_0 <= 1072.8
 c151:    2 q_p_t_s_0_6_0 <= 1072.8
 c152:    2 q_p_t_s_0_7_0 <= 1072.8
 c153:    2 q_p_t_s_0_8_0 <= 1072.8
 c154:    5 q_p_t_s_1_0_0 <= 1080
 c155:    5 q_p_t_s_1_1_0 <= 1080
 c156:    5 q_p_t_s_1_2_0 <= 1080
 c157:    5 q_p_t_s_1_3_0 <= 1080
 c158:    5 q_p_t_s_1_4_0 <= 1080
 c159:    5 q_p_t_s_1_5_0 <= 1080
 c160:    5 q_p_t_s_1_6_0 <= 1080
 c161:    5 q_p_t_s_1_7_0 <= 1080
 c162:    5 q_p_t_s_1_8_0 <= 1080
 c163:    4 q_p_t_s_2_0_0 <= 3009.6
 c164:    4 q_p_t_s_2_1_0 <= 3009.6
 c165:    4 q_p_t_s_2_2_0 <= 3009.6
 c166:    4 q_p_t_s_2_3_0 <= 3009.6
 c167:    4 q_p_t_s_2_4_0 <= 3009.6
 c168:    4 q_p_t_s_2_5_0 <= 3009.6
 c169:    4 q_p_t_s_2_6_0 <= 3009.6
 c170:    4 q_p_t_s_2_7_0 <= 3009.6
 c171:    4 q_p_t_s_2_8_0 <= 3009.6
 c172:    q_p_t_s_3_0_0 <= 752.4
 c173:    q_p_t_s_3_1_0 <= 752.4
 c174:    q_p_t_s_3_2_0 <= 752.4
 c175:    q_p_t_s_3_3_0 <= 752.4
 c176:    q_p_t_s_3_4_0 <= 752.4
 c177:    q_p_t_s_3_5_0 <= 752.4
 c178:    q_p_t_s_3_6_0 <= 752.4
 c179:    q_p_t_s_3_7_0 <= 752.4
 c180:    q_p_t_s_3_8_0 <= 752.4
 c181:    5 q_p_t_s_4_0_0 <= 3762
 c182:    5 q_p_t_s_4_1_0 <= 3762
 c183:    5 q_p_t_s_4_2_0 <= 3762
 c184:    5 q_p_t_s_4_3_0 <= 3762
 c185:    5 q_p_t_s_4_4_0 <= 3762
 c186:    5 q_p_t_s_4_5_0 <= 3762
 c187:    5 q_p_t_s_4_6_0 <= 3762
 c188:    5 q_p_t_s_4_7_0 <= 3762
 c189:    5 q_p_t_s_4_8_0 <= 3762
 c190:    4 q_p_t_s_5_0_0 <= 1821.6
 c191:    4 q_p_t_s_5_1_0 <= 1821.6
 c192:    4 q_p_t_s_5_2_0 <= 1821.6
 c193:    4 q_p_t_s_5_3_0 <= 1821.6
 c194:    4 q_p_t_s_5_4_0 <= 1821.6
 c195:    4 q_p_t_s_5_5_0 <= 1821.6
 c196:    4 q_p_t_s_5_6_0 <= 1821.6
 c197:    4 q_p_t_s_5_7_0 <= 1821.6
 c198:    4 q_p_t_s_5_8_0 <= 1821.6
 c199:    4 q_p_t_s_6_0_0 <= 324
 c200:    4 q_p_t_s_6_1_0 <= 324
 c201:    4 q_p_t_s_6_2_0 <= 324
 c202:    4 q_p_t_s_6_3_0 <= 324
 c203:    4 q_p_t_s_6_4_0 <= 324
 c204:    4 q_p_t_s_6_5_0 <= 324
 c205:    4 q_p_t_s_6_6_0 <= 324
 c206:    4 q_p_t_s_6_7_0 <= 324
 c207:    4 q_p_t_s_6_8_0 <= 324
 c208:    q_p_t_s_7_0_0 <= 135
 c209:    q_p_t_s_7_1_0 <= 135
 c210:    q_p_t_s_7_2_0 <= 135
 c211:    q_p_t_s_7_3_0 <= 135
 c212:    q_p_t_s_7_4_0 <= 135
 c213:    q_p_t_s_7_5_0 <= 135
 c214:    q_p_t_s_7_6_0 <= 135
 c215:    q_p_t_s_7_7_0 <= 135
 c216:    q_p_t_s_7_8_0 <= 135
 c217:    q_p_t_s_0_0_0  = 0
 c218:    q_p_t_s_0_1_0  = 503.4
 c219:    q_p_t_s_0_2_0  = 0
 c220:    q_p_t_s_0_3_0  = 536.4
 c221:    q_p_t_s_0_4_0  = 0
 c222:    q_p_t_s_0_5_0  = 436.2
 c223:    q_p_t_s_0_6_0  = 298
 c224:    q_p_t_s_0_7_0  = 0
 c225:    q_p_t_s_0_8_0  = 0
 c226:    q_p_t_s_1_0_0  = 0
 c227:    q_p_t_s_1_1_0  = 140.6
 c228:    q_p_t_s_1_2_0  = 0
 c229:    q_p_t_s_1_3_0  = 216
 c230:    q_p_t_s_1_4_0  = 0
 c231:    q_p_t_s_1_5_0  = 203.4
 c232:    q_p_t_s_1_6_0  = 120
 c233:    q_p_t_s_1_7_0  = 0
 c234:    q_p_t_s_1_8_0  = 0
 c235:    q_p_t_s_2_0_0  = 0
 c236:    q_p_t_s_2_1_0  = 0
 c237:    q_p_t_s_2_2_0  = 723.4
 c238:    q_p_t_s_2_3_0  = 0
 c239:    q_p_t_s_2_4_0  = 639.6
 c240:    q_p_t_s_2_5_0  = 418
 c241:    q_p_t_s_2_6_0  = 0
 c242:    q_p_t_s_2_7_0  = 0
 c243:    q_p_t_s_2_8_0  = 0
 c244:    q_p_t_s_3_0_0  = 0
 c245:    q_p_t_s_3_1_0  = 0
 c246:    q_p_t_s_3_2_0  = 752.4
 c247:    q_p_t_s_3_3_0  = 0
 c248:    q_p_t_s_3_4_0  = 639.6
 c249:    q_p_t_s_3_5_0  = 418
 c250:    q_p_t_s_3_6_0  = 0
 c251:    q_p_t_s_3_7_0  = 0
 c252:    q_p_t_s_3_8_0  = 0
 c253:    q_p_t_s_4_0_0  = 0
 c254:    q_p_t_s_4_1_0  = 0
 c255:    q_p_t_s_4_2_0  = 574.4
 c256:    q_p_t_s_4_3_0  = 0
 c257:    q_p_t_s_4_4_0  = 639.6
 c258:    q_p_t_s_4_5_0  = 418
 c259:    q_p_t_s_4_6_0  = 0
 c260:    q_p_t_s_4_7_0  = 0
 c261:    q_p_t_s_4_8_0  = 0
 c262:    q_p_t_s_5_0_0  = 455.4
 c263:    q_p_t_s_5_1_0  = 0
 c264:    q_p_t_s_5_2_0  = 455.4
 c265:    q_p_t_s_5_3_0  = 0
 c266:    q_p_t_s_5_4_0  = 455.4
 c267:    q_p_t_s_5_5_0  = 0
 c268:    q_p_t_s_5_6_0  = 367.8
 c269:    q_p_t_s_5_7_0  = 253
 c270:    q_p_t_s_5_8_0  = 0
 c271:    q_p_t_s_6_0_0  = 81
 c272:    q_p_t_s_6_1_0  = 0
 c273:    q_p_t_s_6_2_0  = 74.6
 c274:    q_p_t_s_6_3_0  = 0
 c275:    q_p_t_s_6_4_0  = 81
 c276:    q_p_t_s_6_5_0  = 0
 c277:    q_p_t_s_6_6_0  = 68.4
 c278:    q_p_t_s_6_7_0  = 45
 c279:    q_p_t_s_6_8_0  = 0
 c280:    q_p_t_s_7_0_0  = 133
 c281:    q_p_t_s_7_1_0  = 0
 c282:    q_p_t_s_7_2_0  = 66
 c283:    q_p_t_s_7_3_0  = 0
 c284:    q_p_t_s_7_4_0  = 135
 c285:    q_p_t_s_7_5_0  = 0
 c286:    q_p_t_s_7_6_0  = 135
 c287:    q_p_t_s_7_7_0  = 75
 c288:    q_p_t_s_7_8_0  = 0
Bounds
 0 <= p_0_0_0 <= 1
 0 <= p_1_0_0 <= 1
 0 <= p_2_0_0 <= 1
 0 <= p_3_0_0 <= 1
 0 <= p_4_0_0 <= 1
 0 <= p_5_0_0 <= 1
 0 <= p_6_0_0 <= 1
 0 <= p_7_0_0 <= 1
 0 <= p_0_1_0 <= 1
 0 <= p_1_1_0 <= 1
 0 <= p_2_1_0 <= 1
 0 <= p_3_1_0 <= 1
 0 <= p_4_1_0 <= 1
 0 <= p_5_1_0 <= 1
 0 <= p_6_1_0 <= 1
 0 <= p_7_1_0 <= 1
 0 <= p_0_2_0 <= 1
 0 <= p_1_2_0 <= 1
 0 <= p_2_2_0 <= 1
 0 <= p_3_2_0 <= 1
 0 <= p_4_2_0 <= 1
 0 <= p_5_2_0 <= 1
 0 <= p_6_2_0 <= 1
 0 <= p_7_2_0 <= 1
 0 <= p_0_3_0 <= 1
 0 <= p_1_3_0 <= 1
 0 <= p_2_3_0 <= 1
 0 <= p_3_3_0 <= 1
 0 <= p_4_3_0 <= 1
 0 <= p_5_3_0 <= 1
 0 <= p_6_3_0 <= 1
 0 <= p_7_3_0 <= 1
 0 <= p_0_4_0 <= 1
 0 <= p_1_4_0 <= 1
 0 <= p_2_4_0 <= 1
 0 <= p_3_4_0 <= 1
 0 <= p_4_4_0 <= 1
 0 <= p_5_4_0 <= 1
 0 <= p_6_4_0 <= 1
 0 <= p_7_4_0 <= 1
 0 <= p_0_5_0 <= 1
 0 <= p_1_5_0 <= 1
 0 <= p_2_5_0 <= 1
 0 <= p_3_5_0 <= 1
 0 <= p_4_5_0 <= 1
 0 <= p_5_5_0 <= 1
 0 <= p_6_5_0 <= 1
 0 <= p_7_5_0 <= 1
 0 <= p_0_6_0 <= 1
 0 <= p_1_6_0 <= 1
 0 <= p_2_6_0 <= 1
 0 <= p_3_6_0 <= 1
 0 <= p_4_6_0 <= 1
 0 <= p_5_6_0 <= 1
 0 <= p_6_6_0 <= 1
 0 <= p_7_6_0 <= 1
 0 <= p_0_7_0 <= 1
 0 <= p_1_7_0 <= 1
 0 <= p_2_7_0 <= 1
 0 <= p_3_7_0 <= 1
 0 <= p_4_7_0 <= 1
 0 <= p_5_7_0 <= 1
 0 <= p_6_7_0 <= 1
 0 <= p_7_7_0 <= 1
 0 <= p_0_8_0 <= 1
 0 <= p_1_8_0 <= 1
 0 <= p_2_8_0 <= 1
 0 <= p_3_8_0 <= 1
 0 <= p_4_8_0 <= 1
 0 <= p_5_8_0 <= 1
 0 <= p_6_8_0 <= 1
 0 <= p_7_8_0 <= 1
Binaries
 p_0_0_0  p_1_0_0  p_2_0_0  p_3_0_0  p_4_0_0  p_5_0_0  p_6_0_0  p_7_0_0 
 p_0_1_0  p_1_1_0  p_2_1_0  p_3_1_0  p_4_1_0  p_5_1_0  p_6_1_0  p_7_1_0 
 p_0_2_0  p_1_2_0  p_2_2_0  p_3_2_0  p_4_2_0  p_5_2_0  p_6_2_0  p_7_2_0 
 p_0_3_0  p_1_3_0  p_2_3_0  p_3_3_0  p_4_3_0  p_5_3_0  p_6_3_0  p_7_3_0 
 p_0_4_0  p_1_4_0  p_2_4_0  p_3_4_0  p_4_4_0  p_5_4_0  p_6_4_0  p_7_4_0 
 p_0_5_0  p_1_5_0  p_2_5_0  p_3_5_0  p_4_5_0  p_5_5_0  p_6_5_0  p_7_5_0 
 p_0_6_0  p_1_6_0  p_2_6_0  p_3_6_0  p_4_6_0  p_5_6_0  p_6_6_0  p_7_6_0 
 p_0_7_0  p_1_7_0  p_2_7_0  p_3_7_0  p_4_7_0  p_5_7_0  p_6_7_0  p_7_7_0 
 p_0_8_0  p_1_8_0  p_2_8_0  p_3_8_0  p_4_8_0  p_5_8_0  p_6_8_0  p_7_8_0 
End
